************************************************************************
file with basedata            : mm60_.bas
initial value random generator: 1717789062
************************************************************************
projects                      :  1
jobs (incl. supersource/sink ):  12
horizon                       :  74
RESOURCES
  - renewable                 :  2   R
  - nonrenewable              :  2   N
  - doubly constrained        :  0   D
************************************************************************
PROJECT INFORMATION:
pronr.  #jobs rel.date duedate tardcost  MPM-Time
    1     10      0       13        6       13
************************************************************************
PRECEDENCE RELATIONS:
jobnr.    #modes  #successors   successors
   0        1          3           1   2   3
   1        3          3           4   5   7
   2        3          1           8
   3        3          3           6   7   8
   4        3          1           9
   5        3          1           6
   6        3          1          10
   7        3          2           9  10
   8        3          1          11
   9        3          1          11
  10        3          1          11
  11        1          0        
************************************************************************
REQUESTS/DURATIONS:
jobnr. mode duration  R 1  R 2  R 3  R 4  E(W 1)  E(W 2)
------------------------------------------------------------------------
  0      1     0       0    0    0    0     0       0
  1      1     3       6    7    6    0    39      18
  2      1     4       2   10    0    4    48      16
  3      1     1       4    6    0    7    10       7
  4      1     4      10    5   10    0    60      40
  5      1     2       9    3    4    0    24       8
  6      1     6       8    7    0    7    90      42
  7      1     5      10    3    0    7    65      35
  8      1     2       3    8    0    9    22      18
  9      1     5       8   10    5    0    90      25
 10      1     2      10    8    7    0    36      14
 11      1     0       0    0    0    0     0       0
************************************************************************
RESOURCEAVAILABILITIES:
  R 1  R 2
   55   110
************************************************************************
RESOURCE LIMITS:
jobnr.  l(R 1)  u(R 1)  l(R 2)  u(R 2)
------------------------------------------------------------------------
  0        0       0       0       0
  1        7      13       3       6
  2        6      12       2       4
  3        5      10       4       7
  4        8      15       5      10
  5        7      12       2       4
  6        8      15       4       7
  7        7      13       4       7
  8        6      11       5       9
  9        9      18       3       5
 10        9      18       4       7
 11        0       0       0       0
************************************************************************
SCENARIOS:
------------------------------------------------------------------------
RESOURCE k = 1
s = 1: (0, 24, 63, 10, 55, 21, 96, 88, 32, 85, 38, 0)
s = 2: (0, 34, 41, 11, 81, 32, 155, 58, 31, 84, 44, 0)
s = 3: (0, 61, 45, 10, 48, 34, 91, 74, 16, 83, 24, 0)
s = 4: (0, 47, 54, 8, 72, 29, 90, 76, 19, 115, 34, 0)
s = 5: (0, 40, 39, 7, 76, 16, 93, 46, 15, 106, 32, 0)
s = 6: (0, 40, 43, 11, 48, 21, 85, 49, 31, 159, 42, 0)
s = 7: (0, 29, 70, 13, 59, 27, 58, 41, 28, 74, 30, 0)
s = 8: (0, 51, 44, 8, 96, 31, 57, 83, 15, 53, 29, 0)
s = 9: (0, 36, 70, 11, 65, 19, 86, 61, 25, 79, 39, 0)
s = 10: (0, 46, 29, 14, 40, 18, 71, 63, 34, 127, 43, 0)
s = 11: (0, 56, 32, 11, 51, 24, 109, 85, 20, 64, 28, 0)
s = 12: (0, 39, 46, 10, 69, 30, 111, 43, 16, 94, 28, 0)
s = 13: (0, 25, 59, 6, 53, 32, 64, 56, 33, 117, 36, 0)
s = 14: (0, 43, 55, 10, 114, 26, 58, 53, 25, 111, 35, 0)
s = 15: (0, 46, 46, 8, 79, 22, 51, 72, 17, 48, 50, 0)
s = 16: (0, 21, 39, 8, 42, 20, 93, 61, 24, 60, 38, 0)
s = 17: (0, 47, 34, 9, 64, 28, 139, 50, 23, 58, 25, 0)
s = 18: (0, 35, 74, 16, 69, 37, 118, 70, 16, 127, 41, 0)
s = 19: (0, 31, 40, 9, 88, 19, 71, 62, 21, 76, 31, 0)
s = 20: (0, 32, 49, 12, 47, 27, 61, 97, 20, 84, 53, 0)
s = 21: (0, 35, 64, 8, 66, 18, 61, 97, 18, 76, 22, 0)
s = 22: (0, 35, 70, 8, 92, 20, 63, 71, 17, 112, 44, 0)
s = 23: (0, 44, 35, 12, 46, 23, 117, 50, 12, 80, 31, 0)
s = 24: (0, 47, 49, 9, 56, 17, 61, 75, 25, 167, 31, 0)
s = 25: (0, 31, 43, 9, 60, 16, 117, 65, 19, 98, 40, 0)
s = 26: (0, 36, 65, 9, 52, 22, 63, 64, 27, 88, 51, 0)
s = 27: (0, 55, 72, 13, 35, 24, 88, 57, 35, 60, 49, 0)
s = 28: (0, 39, 48, 8, 97, 19, 88, 59, 14, 76, 34, 0)
s = 29: (0, 54, 72, 9, 36, 37, 103, 52, 23, 59, 45, 0)
s = 30: (0, 27, 74, 14, 90, 18, 80, 65, 13, 113, 39, 0)
s = 31: (0, 48, 54, 17, 79, 19, 102, 105, 23, 77, 25, 0)
s = 32: (0, 32, 74, 12, 50, 29, 81, 56, 20, 109, 47, 0)
s = 33: (0, 44, 34, 7, 52, 17, 67, 52, 25, 89, 27, 0)
s = 34: (0, 49, 33, 10, 63, 25, 71, 79, 19, 58, 46, 0)
s = 35: (0, 33, 41, 7, 67, 20, 81, 39, 26, 89, 52, 0)
s = 36: (0, 35, 39, 9, 66, 24, 105, 72, 19, 113, 29, 0)
s = 37: (0, 23, 26, 8, 68, 16, 66, 78, 16, 80, 26, 0)
s = 38: (0, 24, 36, 9, 44, 21, 69, 51, 16, 81, 31, 0)
s = 39: (0, 40, 61, 13, 44, 19, 67, 67, 12, 79, 26, 0)
s = 40: (0, 30, 31, 14, 54, 21, 162, 83, 34, 80, 44, 0)
s = 41: (0, 55, 39, 11, 38, 34, 120, 72, 22, 47, 29, 0)
s = 42: (0, 35, 46, 13, 51, 35, 83, 64, 22, 113, 47, 0)
s = 43: (0, 25, 48, 7, 97, 19, 76, 53, 44, 100, 34, 0)
s = 44: (0, 30, 40, 9, 81, 24, 105, 55, 14, 69, 26, 0)
s = 45: (0, 27, 46, 13, 40, 20, 93, 66, 22, 96, 24, 0)
s = 46: (0, 33, 45, 12, 50, 20, 66, 73, 15, 91, 27, 0)
s = 47: (0, 26, 57, 11, 74, 25, 64, 54, 31, 88, 29, 0)
s = 48: (0, 39, 38, 7, 66, 18, 73, 86, 29, 78, 34, 0)
s = 49: (0, 45, 60, 9, 56, 31, 62, 45, 22, 107, 24, 0)
s = 50: (0, 23, 53, 9, 64, 25, 83, 60, 15, 62, 37, 0)
s = 51: (0, 55, 59, 17, 95, 28, 111, 75, 35, 129, 43, 0)
s = 52: (0, 28, 47, 9, 82, 15, 86, 79, 26, 74, 32, 0)
s = 53: (0, 48, 47, 16, 53, 30, 84, 45, 20, 103, 29, 0)
s = 54: (0, 31, 36, 9, 73, 21, 109, 97, 23, 76, 25, 0)
s = 55: (0, 45, 59, 10, 41, 24, 69, 108, 17, 100, 51, 0)
s = 56: (0, 45, 46, 9, 68, 23, 62, 62, 17, 92, 35, 0)
s = 57: (0, 74, 68, 9, 53, 23, 58, 53, 15, 49, 30, 0)
s = 58: (0, 35, 36, 15, 76, 30, 71, 68, 20, 115, 39, 0)
s = 59: (0, 29, 38, 7, 77, 17, 69, 61, 14, 80, 57, 0)
s = 60: (0, 39, 52, 7, 68, 18, 120, 73, 34, 123, 27, 0)
s = 61: (0, 39, 34, 8, 45, 22, 62, 66, 17, 119, 39, 0)
s = 62: (0, 44, 56, 10, 60, 21, 80, 51, 20, 58, 51, 0)
s = 63: (0, 56, 50, 13, 83, 23, 65, 45, 19, 148, 38, 0)
s = 64: (0, 62, 55, 14, 45, 14, 76, 78, 24, 89, 42, 0)
s = 65: (0, 28, 36, 11, 35, 29, 78, 99, 18, 77, 33, 0)
s = 66: (0, 27, 37, 16, 40, 14, 121, 58, 19, 137, 41, 0)
s = 67: (0, 51, 65, 14, 49, 15, 58, 55, 27, 69, 55, 0)
s = 68: (0, 31, 44, 12, 64, 27, 55, 70, 20, 62, 47, 0)
s = 69: (0, 25, 51, 14, 76, 29, 102, 42, 15, 87, 45, 0)
s = 70: (0, 35, 56, 9, 57, 17, 86, 98, 25, 84, 30, 0)
s = 71: (0, 61, 52, 11, 49, 25, 103, 53, 22, 87, 24, 0)
s = 72: (0, 27, 44, 12, 69, 29, 119, 84, 36, 86, 31, 0)
s = 73: (0, 52, 57, 9, 99, 20, 97, 38, 39, 86, 45, 0)
s = 74: (0, 41, 38, 11, 69, 27, 54, 46, 18, 147, 37, 0)
s = 75: (0, 49, 67, 10, 66, 21, 87, 42, 21, 127, 44, 0)
s = 76: (0, 37, 60, 8, 52, 37, 94, 59, 18, 53, 50, 0)
s = 77: (0, 35, 42, 8, 47, 23, 57, 57, 30, 66, 33, 0)
s = 78: (0, 45, 53, 8, 59, 31, 58, 80, 17, 86, 30, 0)
s = 79: (0, 29, 68, 7, 49, 27, 92, 64, 29, 80, 23, 0)
s = 80: (0, 44, 42, 19, 47, 19, 94, 75, 18, 161, 28, 0)
s = 81: (0, 34, 39, 7, 57, 23, 60, 85, 23, 109, 33, 0)
s = 82: (0, 38, 55, 9, 53, 32, 62, 39, 26, 51, 31, 0)
s = 83: (0, 40, 40, 8, 40, 23, 60, 77, 22, 61, 24, 0)
s = 84: (0, 49, 31, 10, 42, 26, 75, 83, 21, 69, 25, 0)
s = 85: (0, 39, 51, 13, 45, 29, 92, 81, 25, 146, 49, 0)
s = 86: (0, 50, 57, 10, 59, 25, 131, 58, 13, 95, 56, 0)
s = 87: (0, 26, 59, 9, 83, 28, 111, 59, 23, 89, 36, 0)
s = 88: (0, 34, 52, 13, 64, 31, 90, 53, 25, 74, 28, 0)
s = 89: (0, 55, 58, 13, 59, 22, 69, 66, 21, 72, 22, 0)
s = 90: (0, 36, 32, 13, 75, 20, 133, 58, 25, 82, 32, 0)
s = 91: (0, 54, 63, 8, 49, 24, 125, 102, 18, 119, 45, 0)
s = 92: (0, 39, 31, 12, 60, 19, 70, 50, 28, 151, 33, 0)
s = 93: (0, 45, 51, 16, 61, 19, 129, 59, 30, 83, 40, 0)
s = 94: (0, 36, 28, 14, 97, 21, 92, 48, 18, 113, 34, 0)
s = 95: (0, 29, 52, 8, 66, 38, 107, 87, 18, 51, 44, 0)
s = 96: (0, 24, 72, 11, 40, 31, 81, 84, 17, 120, 20, 0)
s = 97: (0, 45, 61, 9, 86, 29, 84, 86, 13, 95, 42, 0)
s = 98: (0, 44, 51, 8, 58, 25, 50, 67, 31, 68, 38, 0)
s = 99: (0, 60, 43, 18, 63, 26, 60, 46, 17, 60, 27, 0)
s = 100: (0, 31, 60, 9, 78, 22, 103, 44, 23, 92, 54, 0)
s = 101: (0, 31, 39, 9, 40, 21, 92, 72, 24, 54, 31, 0)
s = 102: (0, 50, 34, 7, 37, 37, 68, 61, 18, 63, 38, 0)
s = 103: (0, 36, 33, 12, 84, 21, 111, 53, 18, 68, 52, 0)
s = 104: (0, 46, 61, 7, 38, 18, 101, 56, 25, 64, 26, 0)
s = 105: (0, 58, 56, 11, 60, 31, 47, 52, 25, 68, 44, 0)
s = 106: (0, 34, 48, 10, 61, 24, 124, 52, 12, 140, 30, 0)
s = 107: (0, 23, 35, 8, 106, 42, 60, 75, 22, 114, 39, 0)
s = 108: (0, 51, 27, 11, 70, 26, 81, 87, 26, 72, 42, 0)
s = 109: (0, 31, 46, 16, 40, 26, 101, 87, 15, 122, 27, 0)
s = 110: (0, 40, 50, 10, 51, 28, 91, 90, 15, 70, 34, 0)
s = 111: (0, 31, 37, 11, 51, 37, 64, 89, 21, 61, 45, 0)
s = 112: (0, 49, 34, 8, 101, 20, 59, 68, 15, 92, 28, 0)
s = 113: (0, 36, 32, 13, 81, 16, 74, 85, 16, 48, 42, 0)
s = 114: (0, 31, 31, 7, 56, 25, 98, 54, 18, 91, 32, 0)
s = 115: (0, 38, 29, 10, 37, 30, 111, 74, 22, 61, 35, 0)
s = 116: (0, 40, 57, 6, 35, 24, 62, 73, 15, 98, 48, 0)
s = 117: (0, 33, 52, 9, 65, 25, 74, 76, 20, 80, 36, 0)
s = 118: (0, 49, 50, 17, 75, 17, 132, 66, 24, 77, 43, 0)
s = 119: (0, 46, 35, 10, 46, 22, 73, 71, 13, 69, 25, 0)
s = 120: (0, 37, 89, 19, 76, 23, 76, 62, 23, 93, 43, 0)
s = 121: (0, 35, 65, 9, 50, 29, 79, 79, 23, 79, 41, 0)
s = 122: (0, 30, 39, 13, 42, 26, 82, 65, 24, 92, 21, 0)
s = 123: (0, 31, 64, 13, 77, 14, 122, 55, 15, 56, 30, 0)
s = 124: (0, 33, 76, 7, 56, 25, 87, 44, 13, 69, 36, 0)
s = 125: (0, 27, 50, 6, 51, 25, 127, 42, 16, 106, 32, 0)
s = 126: (0, 28, 37, 14, 41, 21, 147, 75, 21, 121, 40, 0)
s = 127: (0, 30, 69, 10, 46, 21, 79, 56, 19, 87, 48, 0)
s = 128: (0, 37, 35, 6, 99, 16, 106, 88, 13, 63, 45, 0)
s = 129: (0, 22, 44, 11, 67, 23, 106, 92, 14, 77, 32, 0)
s = 130: (0, 41, 49, 12, 57, 18, 92, 66, 21, 124, 27, 0)
s = 131: (0, 30, 50, 7, 83, 30, 55, 41, 28, 89, 38, 0)
s = 132: (0, 34, 49, 13, 43, 23, 117, 89, 32, 108, 48, 0)
s = 133: (0, 52, 44, 8, 86, 37, 99, 47, 19, 65, 28, 0)
s = 134: (0, 31, 37, 11, 73, 20, 62, 82, 29, 91, 39, 0)
s = 135: (0, 50, 64, 8, 56, 40, 132, 69, 19, 105, 40, 0)
s = 136: (0, 38, 52, 9, 46, 18, 110, 46, 17, 93, 47, 0)
s = 137: (0, 39, 50, 8, 42, 22, 76, 78, 15, 82, 33, 0)
s = 138: (0, 33, 51, 8, 33, 25, 91, 53, 17, 61, 28, 0)
s = 139: (0, 21, 84, 21, 70, 41, 70, 59, 23, 93, 31, 0)
s = 140: (0, 25, 39, 9, 47, 20, 98, 47, 25, 80, 22, 0)
s = 141: (0, 49, 32, 13, 86, 37, 95, 42, 39, 112, 35, 0)
s = 142: (0, 47, 43, 6, 71, 17, 108, 76, 34, 106, 27, 0)
s = 143: (0, 32, 49, 14, 72, 24, 88, 41, 15, 66, 38, 0)
s = 144: (0, 22, 34, 8, 54, 22, 77, 81, 22, 104, 50, 0)
s = 145: (0, 46, 44, 11, 78, 28, 98, 91, 24, 48, 28, 0)
s = 146: (0, 26, 44, 12, 38, 32, 58, 50, 13, 70, 41, 0)
s = 147: (0, 42, 44, 9, 59, 28, 123, 89, 16, 62, 40, 0)
s = 148: (0, 31, 79, 7, 53, 25, 66, 52, 20, 83, 36, 0)
s = 149: (0, 37, 39, 9, 57, 27, 58, 57, 25, 73, 44, 0)
s = 150: (0, 38, 33, 8, 50, 15, 58, 66, 30, 85, 33, 0)
s = 151: (0, 49, 62, 7, 48, 20, 134, 68, 24, 60, 30, 0)
s = 152: (0, 29, 34, 13, 51, 25, 111, 84, 24, 68, 30, 0)
s = 153: (0, 35, 52, 12, 41, 22, 71, 76, 28, 105, 35, 0)
s = 154: (0, 25, 39, 16, 70, 32, 79, 34, 16, 119, 26, 0)
s = 155: (0, 44, 60, 9, 68, 14, 60, 66, 16, 65, 43, 0)
s = 156: (0, 35, 57, 10, 47, 34, 106, 62, 23, 85, 31, 0)
s = 157: (0, 33, 74, 15, 43, 18, 63, 51, 17, 113, 28, 0)
s = 158: (0, 46, 46, 10, 40, 36, 128, 66, 17, 87, 41, 0)
s = 159: (0, 33, 67, 13, 90, 31, 87, 68, 17, 67, 31, 0)
s = 160: (0, 28, 39, 12, 36, 33, 119, 43, 32, 108, 59, 0)
s = 161: (0, 45, 38, 9, 54, 24, 150, 78, 14, 64, 38, 0)
s = 162: (0, 33, 43, 11, 49, 16, 113, 43, 25, 73, 56, 0)
s = 163: (0, 22, 55, 8, 51, 22, 79, 55, 17, 82, 51, 0)
s = 164: (0, 44, 56, 9, 54, 36, 142, 65, 21, 80, 42, 0)
s = 165: (0, 53, 32, 17, 76, 25, 71, 62, 19, 79, 29, 0)
s = 166: (0, 39, 37, 13, 43, 26, 107, 52, 16, 102, 44, 0)
s = 167: (0, 25, 65, 9, 41, 23, 103, 109, 26, 116, 25, 0)
s = 168: (0, 25, 46, 10, 50, 23, 64, 64, 17, 113, 29, 0)
s = 169: (0, 22, 69, 7, 74, 22, 67, 51, 22, 67, 24, 0)
s = 170: (0, 21, 57, 10, 60, 21, 82, 84, 21, 55, 49, 0)
s = 171: (0, 29, 40, 16, 36, 28, 116, 58, 25, 115, 56, 0)
s = 172: (0, 48, 32, 11, 59, 27, 80, 80, 18, 115, 41, 0)
s = 173: (0, 25, 34, 9, 83, 18, 105, 60, 22, 108, 53, 0)
s = 174: (0, 43, 67, 10, 47, 26, 59, 72, 33, 64, 40, 0)
s = 175: (0, 28, 46, 9, 43, 16, 89, 43, 22, 63, 31, 0)
s = 176: (0, 50, 55, 13, 42, 17, 143, 61, 23, 87, 30, 0)
s = 177: (0, 26, 66, 9, 37, 21, 153, 43, 27, 83, 28, 0)
s = 178: (0, 34, 46, 11, 40, 37, 67, 70, 24, 68, 49, 0)
s = 179: (0, 37, 44, 11, 41, 15, 96, 52, 15, 91, 29, 0)
s = 180: (0, 28, 68, 12, 100, 20, 106, 95, 18, 142, 23, 0)
s = 181: (0, 41, 26, 10, 54, 31, 65, 59, 18, 145, 24, 0)
s = 182: (0, 39, 57, 9, 33, 22, 113, 51, 17, 70, 54, 0)
s = 183: (0, 33, 65, 14, 43, 42, 82, 94, 28, 135, 28, 0)
s = 184: (0, 46, 29, 6, 77, 22, 82, 42, 13, 69, 46, 0)
s = 185: (0, 43, 36, 13, 60, 33, 107, 90, 19, 62, 23, 0)
s = 186: (0, 34, 31, 11, 69, 36, 97, 68, 17, 65, 58, 0)
s = 187: (0, 28, 43, 8, 49, 25, 78, 50, 41, 84, 28, 0)
s = 188: (0, 34, 35, 10, 91, 27, 119, 82, 27, 56, 43, 0)
s = 189: (0, 40, 77, 8, 57, 27, 55, 62, 23, 53, 49, 0)
s = 190: (0, 48, 53, 10, 96, 27, 131, 74, 21, 64, 35, 0)
s = 191: (0, 33, 54, 10, 58, 31, 125, 87, 27, 83, 36, 0)
s = 192: (0, 27, 37, 9, 105, 36, 49, 60, 28, 99, 38, 0)
s = 193: (0, 46, 62, 9, 51, 15, 134, 83, 19, 73, 22, 0)
s = 194: (0, 44, 55, 8, 78, 27, 89, 58, 20, 72, 32, 0)
s = 195: (0, 45, 26, 9, 63, 22, 82, 65, 17, 77, 27, 0)
s = 196: (0, 23, 29, 14, 78, 23, 125, 41, 21, 52, 46, 0)
s = 197: (0, 38, 68, 13, 70, 31, 91, 48, 23, 82, 53, 0)
s = 198: (0, 41, 42, 7, 85, 19, 77, 59, 21, 99, 43, 0)
s = 199: (0, 30, 44, 16, 65, 27, 105, 95, 15, 58, 40, 0)
s = 200: (0, 32, 35, 7, 64, 29, 52, 51, 21, 137, 39, 0)
------------------------------------------------------------------------
RESOURCE k = 2
s = 1: (0, 11, 21, 7, 37, 7, 45, 47, 26, 24, 15, 0)
s = 2: (0, 16, 14, 8, 54, 11, 73, 31, 26, 24, 17, 0)
s = 3: (0, 29, 15, 7, 32, 12, 43, 40, 13, 23, 10, 0)
s = 4: (0, 22, 18, 6, 48, 10, 42, 41, 15, 32, 14, 0)
s = 5: (0, 19, 13, 5, 51, 6, 44, 25, 12, 30, 13, 0)
s = 6: (0, 19, 15, 8, 32, 7, 40, 26, 25, 44, 17, 0)
s = 7: (0, 14, 24, 9, 39, 9, 27, 22, 23, 21, 12, 0)
s = 8: (0, 24, 15, 6, 64, 11, 27, 45, 13, 15, 11, 0)
s = 9: (0, 17, 24, 8, 43, 7, 40, 33, 20, 22, 15, 0)
s = 10: (0, 21, 10, 10, 27, 6, 34, 34, 28, 36, 17, 0)
s = 11: (0, 26, 11, 8, 34, 8, 51, 46, 16, 18, 11, 0)
s = 12: (0, 18, 16, 7, 46, 10, 52, 23, 14, 26, 11, 0)
s = 13: (0, 12, 20, 4, 35, 11, 30, 31, 27, 33, 14, 0)
s = 14: (0, 20, 19, 7, 76, 9, 27, 29, 21, 31, 14, 0)
s = 15: (0, 22, 16, 6, 53, 8, 24, 39, 14, 14, 20, 0)
s = 16: (0, 10, 13, 5, 28, 7, 44, 33, 20, 17, 15, 0)
s = 17: (0, 22, 12, 6, 43, 10, 65, 27, 19, 16, 10, 0)
s = 18: (0, 17, 25, 12, 46, 13, 55, 38, 14, 36, 16, 0)
s = 19: (0, 14, 14, 6, 59, 7, 34, 34, 17, 22, 13, 0)
s = 20: (0, 15, 17, 9, 32, 9, 29, 52, 16, 24, 21, 0)
s = 21: (0, 16, 22, 6, 44, 6, 29, 53, 15, 22, 9, 0)
s = 22: (0, 17, 24, 6, 62, 7, 30, 39, 14, 32, 17, 0)
s = 23: (0, 21, 12, 8, 31, 8, 55, 27, 10, 22, 12, 0)
s = 24: (0, 22, 17, 7, 37, 6, 29, 41, 20, 47, 12, 0)
s = 25: (0, 15, 15, 6, 40, 6, 55, 35, 15, 28, 16, 0)
s = 26: (0, 17, 22, 6, 35, 8, 30, 35, 22, 25, 20, 0)
s = 27: (0, 26, 24, 9, 23, 8, 41, 31, 28, 17, 19, 0)
s = 28: (0, 18, 16, 6, 65, 7, 41, 32, 12, 21, 14, 0)
s = 29: (0, 25, 24, 6, 24, 13, 48, 28, 19, 17, 18, 0)
s = 30: (0, 13, 25, 10, 60, 6, 37, 35, 11, 32, 15, 0)
s = 31: (0, 22, 18, 12, 53, 7, 48, 57, 19, 22, 10, 0)
s = 32: (0, 15, 25, 9, 34, 10, 38, 30, 16, 31, 18, 0)
s = 33: (0, 21, 12, 5, 35, 6, 32, 28, 20, 25, 11, 0)
s = 34: (0, 23, 11, 7, 42, 9, 33, 43, 16, 16, 18, 0)
s = 35: (0, 16, 14, 5, 45, 7, 38, 21, 21, 25, 21, 0)
s = 36: (0, 17, 13, 6, 44, 8, 49, 39, 16, 32, 12, 0)
s = 37: (0, 11, 9, 6, 45, 6, 31, 42, 13, 23, 10, 0)
s = 38: (0, 11, 12, 6, 30, 7, 33, 28, 13, 23, 12, 0)
s = 39: (0, 19, 21, 9, 30, 7, 31, 36, 10, 22, 10, 0)
s = 40: (0, 14, 11, 10, 36, 7, 76, 45, 28, 23, 17, 0)
s = 41: (0, 26, 13, 8, 26, 12, 56, 39, 18, 13, 12, 0)
s = 42: (0, 16, 16, 9, 34, 12, 39, 35, 18, 32, 18, 0)
s = 43: (0, 12, 16, 5, 65, 7, 36, 29, 36, 28, 13, 0)
s = 44: (0, 14, 14, 6, 54, 8, 49, 30, 12, 19, 10, 0)
s = 45: (0, 13, 16, 9, 27, 7, 44, 36, 18, 27, 10, 0)
s = 46: (0, 16, 15, 8, 33, 7, 31, 39, 12, 26, 11, 0)
s = 47: (0, 12, 19, 8, 49, 9, 30, 29, 25, 25, 12, 0)
s = 48: (0, 18, 13, 5, 44, 6, 34, 47, 24, 22, 14, 0)
s = 49: (0, 21, 20, 6, 37, 11, 29, 24, 18, 30, 10, 0)
s = 50: (0, 11, 18, 7, 43, 9, 39, 33, 12, 18, 15, 0)
s = 51: (0, 26, 20, 12, 63, 10, 52, 40, 28, 36, 17, 0)
s = 52: (0, 13, 16, 6, 55, 5, 40, 43, 21, 21, 13, 0)
s = 53: (0, 22, 16, 11, 36, 10, 39, 24, 17, 29, 12, 0)
s = 54: (0, 15, 12, 6, 49, 7, 51, 53, 19, 21, 10, 0)
s = 55: (0, 21, 20, 7, 28, 8, 32, 58, 14, 28, 20, 0)
s = 56: (0, 21, 16, 7, 46, 8, 29, 34, 14, 26, 14, 0)
s = 57: (0, 35, 23, 7, 36, 8, 27, 29, 12, 14, 12, 0)
s = 58: (0, 16, 12, 10, 51, 10, 34, 37, 16, 32, 15, 0)
s = 59: (0, 14, 13, 5, 52, 6, 32, 33, 12, 23, 22, 0)
s = 60: (0, 18, 18, 5, 46, 6, 56, 40, 28, 34, 11, 0)
s = 61: (0, 18, 12, 6, 30, 8, 29, 36, 14, 34, 15, 0)
s = 62: (0, 21, 19, 7, 40, 7, 37, 27, 16, 17, 20, 0)
s = 63: (0, 26, 17, 9, 55, 8, 30, 24, 15, 42, 15, 0)
s = 64: (0, 29, 19, 10, 30, 5, 36, 42, 20, 25, 16, 0)
s = 65: (0, 13, 12, 8, 24, 10, 37, 54, 15, 22, 13, 0)
s = 66: (0, 13, 13, 11, 27, 5, 57, 31, 16, 38, 16, 0)
s = 67: (0, 24, 22, 10, 33, 5, 27, 30, 22, 19, 22, 0)
s = 68: (0, 15, 15, 8, 43, 9, 26, 38, 16, 18, 19, 0)
s = 69: (0, 12, 17, 10, 51, 10, 48, 23, 12, 25, 18, 0)
s = 70: (0, 16, 19, 6, 38, 6, 40, 53, 21, 24, 12, 0)
s = 71: (0, 29, 18, 8, 33, 9, 48, 29, 18, 25, 10, 0)
s = 72: (0, 13, 15, 9, 46, 10, 56, 46, 30, 24, 12, 0)
s = 73: (0, 24, 19, 6, 66, 7, 46, 21, 32, 24, 18, 0)
s = 74: (0, 19, 13, 8, 46, 9, 25, 25, 15, 41, 15, 0)
s = 75: (0, 23, 23, 7, 44, 7, 41, 23, 17, 36, 17, 0)
s = 76: (0, 17, 20, 5, 35, 13, 44, 32, 15, 15, 20, 0)
s = 77: (0, 16, 14, 6, 32, 8, 27, 31, 24, 19, 13, 0)
s = 78: (0, 21, 18, 5, 40, 11, 27, 43, 14, 24, 12, 0)
s = 79: (0, 14, 23, 5, 33, 9, 43, 35, 24, 23, 9, 0)
s = 80: (0, 21, 14, 13, 31, 7, 44, 40, 15, 45, 11, 0)
s = 81: (0, 16, 13, 5, 38, 8, 28, 46, 19, 31, 13, 0)
s = 82: (0, 18, 19, 6, 36, 11, 29, 21, 21, 14, 12, 0)
s = 83: (0, 19, 14, 6, 27, 8, 28, 42, 18, 17, 10, 0)
s = 84: (0, 23, 11, 7, 28, 9, 35, 45, 17, 20, 10, 0)
s = 85: (0, 18, 17, 9, 30, 10, 43, 44, 21, 41, 19, 0)
s = 86: (0, 23, 19, 7, 40, 9, 61, 32, 10, 27, 22, 0)
s = 87: (0, 12, 20, 6, 56, 10, 52, 32, 19, 25, 14, 0)
s = 88: (0, 16, 18, 9, 43, 11, 42, 29, 21, 21, 11, 0)
s = 89: (0, 26, 20, 10, 39, 8, 32, 36, 17, 20, 9, 0)
s = 90: (0, 17, 11, 9, 50, 7, 62, 31, 20, 23, 13, 0)
s = 91: (0, 25, 21, 6, 33, 8, 58, 55, 15, 33, 18, 0)
s = 92: (0, 18, 11, 8, 40, 7, 33, 27, 23, 42, 13, 0)
s = 93: (0, 21, 17, 11, 41, 7, 60, 32, 24, 23, 16, 0)
s = 94: (0, 17, 10, 10, 65, 7, 43, 26, 15, 32, 13, 0)
s = 95: (0, 14, 18, 6, 44, 13, 50, 47, 15, 15, 18, 0)
s = 96: (0, 11, 24, 8, 27, 11, 38, 46, 14, 34, 8, 0)
s = 97: (0, 21, 21, 7, 58, 10, 40, 46, 11, 27, 17, 0)
s = 98: (0, 20, 17, 6, 39, 9, 24, 36, 26, 19, 15, 0)
s = 99: (0, 28, 15, 13, 42, 9, 28, 25, 14, 17, 11, 0)
s = 100: (0, 14, 20, 7, 52, 8, 48, 24, 19, 26, 21, 0)
s = 101: (0, 15, 13, 7, 27, 7, 43, 39, 20, 15, 12, 0)
s = 102: (0, 23, 12, 5, 25, 13, 32, 33, 15, 18, 15, 0)
s = 103: (0, 17, 11, 8, 56, 7, 52, 29, 15, 19, 20, 0)
s = 104: (0, 21, 21, 5, 26, 6, 48, 30, 20, 18, 10, 0)
s = 105: (0, 27, 19, 8, 40, 11, 22, 28, 20, 19, 18, 0)
s = 106: (0, 16, 16, 7, 41, 8, 58, 28, 10, 39, 12, 0)
s = 107: (0, 11, 12, 6, 71, 14, 28, 41, 18, 32, 16, 0)
s = 108: (0, 24, 9, 8, 47, 9, 38, 47, 21, 20, 17, 0)
s = 109: (0, 15, 16, 12, 27, 9, 47, 47, 12, 34, 11, 0)
s = 110: (0, 19, 17, 7, 34, 10, 43, 48, 13, 20, 14, 0)
s = 111: (0, 15, 13, 8, 34, 13, 30, 48, 17, 17, 18, 0)
s = 112: (0, 23, 12, 6, 68, 7, 28, 37, 12, 26, 11, 0)
s = 113: (0, 17, 11, 9, 54, 6, 35, 46, 13, 14, 17, 0)
s = 114: (0, 15, 11, 5, 38, 9, 46, 29, 15, 26, 13, 0)
s = 115: (0, 18, 10, 7, 25, 10, 52, 40, 18, 17, 14, 0)
s = 116: (0, 19, 19, 4, 24, 8, 29, 39, 12, 28, 19, 0)
s = 117: (0, 16, 18, 6, 43, 9, 35, 41, 17, 23, 14, 0)
s = 118: (0, 23, 17, 12, 50, 6, 62, 36, 20, 22, 17, 0)
s = 119: (0, 22, 12, 7, 31, 8, 34, 39, 11, 20, 10, 0)
s = 120: (0, 17, 30, 13, 51, 8, 36, 34, 19, 26, 17, 0)
s = 121: (0, 16, 22, 6, 34, 10, 37, 43, 19, 22, 16, 0)
s = 122: (0, 14, 13, 9, 28, 9, 39, 35, 20, 26, 9, 0)
s = 123: (0, 14, 22, 9, 51, 5, 57, 30, 12, 16, 12, 0)
s = 124: (0, 15, 26, 5, 38, 9, 41, 24, 11, 19, 14, 0)
s = 125: (0, 13, 17, 5, 34, 9, 60, 23, 14, 30, 13, 0)
s = 126: (0, 13, 13, 10, 28, 7, 69, 41, 17, 34, 16, 0)
s = 127: (0, 14, 23, 7, 31, 7, 37, 31, 16, 25, 19, 0)
s = 128: (0, 17, 12, 4, 66, 6, 50, 48, 10, 18, 18, 0)
s = 129: (0, 10, 15, 8, 45, 8, 50, 50, 11, 22, 13, 0)
s = 130: (0, 19, 17, 9, 38, 6, 43, 36, 17, 35, 11, 0)
s = 131: (0, 14, 17, 5, 55, 10, 26, 22, 23, 25, 15, 0)
s = 132: (0, 16, 17, 9, 29, 8, 55, 48, 26, 30, 19, 0)
s = 133: (0, 24, 15, 6, 58, 13, 46, 25, 15, 19, 11, 0)
s = 134: (0, 15, 13, 8, 49, 7, 29, 44, 24, 26, 15, 0)
s = 135: (0, 23, 22, 6, 37, 14, 62, 37, 16, 30, 16, 0)
s = 136: (0, 18, 18, 6, 31, 6, 51, 25, 14, 26, 19, 0)
s = 137: (0, 18, 17, 6, 28, 8, 36, 42, 13, 23, 13, 0)
s = 138: (0, 16, 17, 6, 22, 9, 43, 29, 14, 17, 11, 0)
s = 139: (0, 10, 28, 15, 47, 14, 33, 32, 19, 26, 12, 0)
s = 140: (0, 12, 13, 6, 31, 7, 46, 25, 20, 23, 9, 0)
s = 141: (0, 23, 11, 9, 57, 13, 45, 23, 32, 31, 14, 0)
s = 142: (0, 22, 15, 4, 47, 6, 51, 41, 28, 30, 11, 0)
s = 143: (0, 15, 17, 10, 48, 8, 41, 22, 12, 19, 15, 0)
s = 144: (0, 11, 12, 6, 36, 8, 36, 44, 18, 29, 20, 0)
s = 145: (0, 21, 15, 8, 52, 10, 46, 49, 19, 14, 11, 0)
s = 146: (0, 12, 15, 9, 26, 11, 27, 27, 11, 20, 16, 0)
s = 147: (0, 20, 15, 7, 40, 10, 57, 48, 13, 18, 16, 0)
s = 148: (0, 14, 27, 5, 36, 9, 31, 28, 16, 24, 14, 0)
s = 149: (0, 18, 13, 6, 38, 9, 27, 31, 20, 21, 18, 0)
s = 150: (0, 18, 11, 6, 34, 5, 27, 36, 24, 24, 13, 0)
s = 151: (0, 23, 21, 5, 32, 7, 63, 37, 20, 17, 12, 0)
s = 152: (0, 14, 12, 9, 34, 9, 52, 45, 20, 19, 12, 0)
s = 153: (0, 16, 18, 8, 28, 8, 33, 41, 23, 29, 14, 0)
s = 154: (0, 12, 13, 11, 47, 11, 37, 18, 13, 33, 10, 0)
s = 155: (0, 20, 20, 7, 45, 5, 28, 36, 13, 18, 17, 0)
s = 156: (0, 16, 19, 7, 32, 12, 50, 33, 19, 24, 12, 0)
s = 157: (0, 16, 25, 11, 29, 6, 29, 28, 14, 32, 11, 0)
s = 158: (0, 21, 16, 7, 27, 12, 60, 36, 14, 24, 16, 0)
s = 159: (0, 16, 23, 9, 60, 11, 41, 37, 14, 19, 12, 0)
s = 160: (0, 13, 13, 8, 24, 11, 56, 23, 26, 30, 23, 0)
s = 161: (0, 21, 13, 6, 36, 8, 70, 42, 11, 18, 15, 0)
s = 162: (0, 16, 15, 8, 33, 6, 53, 24, 21, 21, 22, 0)
s = 163: (0, 10, 19, 5, 34, 8, 37, 30, 14, 23, 20, 0)
s = 164: (0, 20, 19, 6, 36, 12, 66, 35, 17, 23, 17, 0)
s = 165: (0, 25, 11, 12, 51, 9, 33, 34, 15, 22, 12, 0)
s = 166: (0, 18, 13, 10, 29, 9, 50, 28, 13, 29, 17, 0)
s = 167: (0, 12, 22, 7, 28, 8, 48, 59, 22, 33, 10, 0)
s = 168: (0, 12, 16, 7, 33, 8, 30, 35, 14, 32, 11, 0)
s = 169: (0, 10, 23, 5, 49, 8, 32, 28, 18, 19, 10, 0)
s = 170: (0, 10, 19, 7, 40, 7, 39, 45, 18, 16, 19, 0)
s = 171: (0, 14, 14, 12, 24, 10, 54, 32, 20, 32, 22, 0)
s = 172: (0, 23, 11, 8, 40, 9, 37, 43, 15, 32, 16, 0)
s = 173: (0, 12, 12, 7, 55, 6, 49, 33, 18, 30, 21, 0)
s = 174: (0, 20, 23, 7, 32, 9, 28, 39, 27, 18, 16, 0)
s = 175: (0, 13, 16, 7, 29, 6, 42, 24, 18, 18, 13, 0)
s = 176: (0, 23, 19, 10, 28, 6, 67, 33, 19, 24, 12, 0)
s = 177: (0, 12, 22, 6, 25, 7, 72, 24, 23, 24, 11, 0)
s = 178: (0, 16, 16, 8, 27, 13, 32, 38, 20, 19, 19, 0)
s = 179: (0, 18, 15, 8, 28, 5, 45, 28, 12, 26, 12, 0)
s = 180: (0, 13, 23, 9, 67, 7, 50, 51, 15, 40, 9, 0)
s = 181: (0, 19, 9, 7, 36, 11, 31, 32, 15, 41, 10, 0)
s = 182: (0, 18, 19, 7, 22, 8, 53, 28, 14, 20, 21, 0)
s = 183: (0, 15, 22, 10, 29, 14, 38, 51, 23, 38, 11, 0)
s = 184: (0, 21, 10, 4, 51, 8, 38, 23, 10, 20, 18, 0)
s = 185: (0, 20, 12, 10, 40, 11, 50, 49, 15, 18, 9, 0)
s = 186: (0, 16, 11, 8, 46, 12, 46, 37, 14, 18, 23, 0)
s = 187: (0, 13, 15, 6, 33, 9, 37, 27, 34, 24, 11, 0)
s = 188: (0, 16, 12, 7, 61, 9, 56, 45, 22, 16, 17, 0)
s = 189: (0, 19, 26, 5, 38, 9, 26, 33, 19, 15, 19, 0)
s = 190: (0, 22, 18, 7, 64, 9, 61, 40, 17, 18, 14, 0)
s = 191: (0, 16, 18, 7, 39, 11, 58, 47, 23, 23, 14, 0)
s = 192: (0, 13, 13, 6, 70, 12, 23, 33, 23, 28, 15, 0)
s = 193: (0, 22, 21, 6, 34, 5, 63, 45, 15, 21, 9, 0)
s = 194: (0, 20, 19, 6, 52, 9, 42, 32, 17, 20, 13, 0)
s = 195: (0, 21, 9, 6, 42, 8, 39, 35, 14, 22, 11, 0)
s = 196: (0, 11, 10, 10, 52, 8, 59, 22, 17, 15, 18, 0)
s = 197: (0, 18, 23, 9, 47, 11, 43, 26, 19, 23, 21, 0)
s = 198: (0, 19, 14, 5, 57, 7, 36, 32, 17, 28, 17, 0)
s = 199: (0, 14, 15, 11, 43, 9, 49, 52, 12, 16, 16, 0)
s = 200: (0, 15, 12, 5, 43, 10, 25, 28, 17, 38, 15, 0)
************************************************************************
ES/LS-VALUES:
jobnr.   ES(i)    LS(i)
------------------------------------------------------------------------
  0        0        0
  1        0       49
  2        0       62
  3        0       52
  4        5       56
  5        5       55
  6        8       59
  7        5       55
  8        7       70
  9       13       64
 10       18       70
 11       22       74
************************************************************************
BIG-M-VALUES:
M1 = 40, M2 = 238
************************************************************************
